30 1 6
148 358 576 216 672 966 488 749 734 905 686 998 534 5 679 315 841 753 969 893 975 550 151 289 274 618 632 148 169 134 
685 668 843 612 883 514 578 722 614 663 626 299 661 159 655 691 825 496 443 146 740 418 695 891 706 320 860 689 820 28 
822 504 48 16 115 930 530 44 4 495 707 629 146 719 140 800 409 316 647 851 461 387 620 507 277 326 827 488 14 646 
516 188 501 915 203 967 196 84 11 199 579 69 180 724 787 671 875 195 986 874 397 799 260 17 305 888 342 131 375 707 
128 242 246 628 156 801 595 352 236 957 902 166 25 81 241 163 751 116 357 89 989 753 887 600 121 191 487 814 674 213 
521 801 455 118 429 962 270 375 665 506 331 567 671 707 999 912 869 102 379 577 190 719 681 428 318 802 618 156 615 643 
7200 4870 4440 1740 6050 8720 4880 8740 5980 1520 7310 9280 700 4020 6340 690 6650 8540 1700 430 4300 7110 1130 1100 1380 7820 9110 1070 2890 5260 
70480
